
Gurobi 8.1.1 (win64) logging started 11/27/19 08:38:36

Changed value of parameter LogFile to logs/miss/rlt/miss-07-30-1.log
   Prev: gurobi.log  Default: 
Changed value of parameter LogToConsole to 0
   Prev: 1  Min: 0  Max: 1  Default: 1
Changed value of parameter TimeLimit to 3600.0
   Prev: 1e+100  Min: 0.0  Max: 1e+100  Default: 1e+100
Optimize a model with 313973 rows, 105111 columns and 738526 nonzeros
Variable types: 0 continuous, 105111 integer (458 binary)
Coefficient statistics:
  Matrix range     [1e+00, 1e+00]
  Objective range  [1e+00, 1e+00]
  Bounds range     [1e+00, 1e+00]
  RHS range        [1e+00, 1e+00]
Presolve removed 0 rows and 0 columns (presolve time = 5s) ...
Presolve time: 5.09s
Presolved: 313973 rows, 105111 columns, 738526 nonzeros
Variable types: 0 continuous, 105111 integer (105111 binary)
Found heuristic solution: objective 12.0000000
Found heuristic solution: objective 9.0000000

Root simplex log...

Iteration    Objective       Primal Inf.    Dual Inf.      Time
       0    0.0000000e+00   1.400000e+01   0.000000e+00      6s
    5987    1.0000114e+00   1.575000e+01   0.000000e+00     10s
    6577    1.0000120e+00   1.500000e+01   0.000000e+00     16s
    7107    1.0000124e+00   1.452941e+01   0.000000e+00     21s
    7667    1.0000148e+00   4.856667e+02   0.000000e+00     26s
    8247    1.0589404e+00   5.225581e+02   0.000000e+00     31s
    8817    1.0958155e+00   7.577605e+02   0.000000e+00     36s
    9337    1.1180899e+00   3.203469e+02   0.000000e+00     41s
    9737    1.1249672e+00   1.161723e+01   0.000000e+00     46s
   10187    1.1309405e+00   9.694716e+00   0.000000e+00     50s
   10787    1.1449952e+00   4.912192e+02   0.000000e+00     56s
   11247    1.1527750e+00   9.268065e+02   0.000000e+00     61s
   12017    1.1607527e+00   3.587056e+01   0.000000e+00     66s
   14537    1.1658083e+00   1.314331e+02   0.000000e+00     70s
   17569    1.1690565e+00   3.537535e+02   0.000000e+00     76s
   20017    1.1703063e+00   2.817381e+01   0.000000e+00     80s
   23311    1.1707481e+00   6.896880e-01   0.000000e+00     85s
   23937    1.1707681e+00   0.000000e+00   0.000000e+00     86s

Root relaxation: objective 1.170768e+00, 23937 iterations, 80.19 seconds

    Nodes    |    Current Node    |     Objective Bounds      |     Work
 Expl Unexpl |  Obj  Depth IntInf | Incumbent    BestBd   Gap | It/Node Time

     0     0    1.17077    0 6042    9.00000    1.17077  87.0%     -  109s
     0     0    1.33324    0 4256    9.00000    1.33324  85.2%     -  244s
H    0     0                       7.0000000    1.33324  81.0%     -  345s
     0     0    1.58357    0 4595    7.00000    1.58357  77.4%     -  440s
     0     0    1.58358    0 4575    7.00000    1.58358  77.4%     -  548s
     0     0    1.61829    0 4300    7.00000    1.61829  76.9%     -  571s
     0     0    1.63690    0 4532    7.00000    1.63690  76.6%     -  769s
     0     0    1.64523    0 4506    7.00000    1.64523  76.5%     -  783s
     0     0    1.65105    0 4888    7.00000    1.65105  76.4%     -  867s
     0     0    1.65953    0 4672    7.00000    1.65953  76.3%     -  905s
     0     0    1.65953    0 4672    7.00000    1.65953  76.3%     - 1055s
     0     0    1.66135    0 4644    7.00000    1.66135  76.3%     - 1081s
     0     0    1.66136    0 4679    7.00000    1.66136  76.3%     - 1091s
     0     0    1.66241    0 4460    7.00000    1.66241  76.3%     - 1102s
     0     0    1.66243    0 4505    7.00000    1.66243  76.3%     - 1112s
     0     0    1.66361    0 4661    7.00000    1.66361  76.2%     - 1135s
     0     0    1.66361    0 4660    7.00000    1.66361  76.2%     - 1162s
     0     0    1.66361    0 4660    7.00000    1.66361  76.2%     - 3600s

Cutting planes:
  Gomory: 2
  MIR: 6
  Zero half: 18

Explored 1 nodes (109984 simplex iterations) in 3600.23 seconds
Thread count was 4 (of 4 available processors)

Solution count 3: 7 9 12 

Time limit reached
Best objective 7.000000000000e+00, best bound 2.000000000000e+00, gap 71.4286%
